NAME : morphed22-5-18
COMMENT : Generated using the function morphInstances from the R-package netgen (Bossek,2015) - Number of clusters: 5 Alpha: 0.5
TYPE : TSP
DIMENSION : 22
EDGE_WEIGHT_TYPE : EUC_2D
NODE_COORD_SECTION
1 88.4584765169 78.3045500098
2 80.3449074938 73.6745782898
3 92.2672527337 31.15901227
4 12.1103563466 78.2604400592
5 4.9350632988 66.1805859349
6 58.3102722562 50.0739585967
7 37.8731664027 26.9592185232
8 64.0055233604 35.8566761225
9 31.858840066 91.2765900794
10 35.5336757024 51.5915978739
11 65.2717047558 16.7742228935
12 72.0943858837 19.579636568
13 22.7717099659 31.7464916682
14 43.5055585509 72.645073301
15 99.0374488354 83.3874520347
16 36.9896260251 56.2901530381
17 54.3147974809 66.4900073247
18 28.8824049398 48.7834256334
19 86.2290862457 16.3578269001
20 19.8998572835 17.7821403998
21 4.7956928432 93.1337229253
22 24.8389886708 17.3412783245
EOF
